VRPMS_Data_Small

HEAVY VEHICLE         LIGHT VEHICLE
NUMBER     CAPACITY   NUMBER    CAPACITY  Range
  1         100        1          30      40

CUSTOMER
CUST NO.  XCOORD.   YCOORD.    DEMAND   READY TIME  DUE DATE   SERVICE   TIME

    0      40         50          0          0       1200          0
    1      45         68         10          0       1100         90
    2      45         70         20          0       1100         90
    3      42         66         10          0       1100         90
    4      42         68         30          0       1100         90
    5      42         65         10          0       1100         90
    6      40         69         10          0       1100         90
    7      40         66         20          0       1100         90
    8      38         68         10          0       1100         90
    9      38         70         10          0       1100         90
   10      35         66         10          0       1100         90
   11      35         69         40          0       1100         90